
n_res = 6;
rcap = [20, 21, 701, 598, 723, 658];
rtype = [1, 1, 2, 2, 2, 2];
n_tasks = 50;
modes =  [{1, 2, 3, 4, 5, 6, 7, 8, 9}, {10, 11, 12, 13, 14, 15, 16, 17, 18}, {19, 20, 21, 22, 23, 24, 25, 26, 27}, {28, 29, 30, 31, 32, 33, 34, 35, 36}, {37, 38, 39, 40, 41, 42, 43, 44, 45}, {46, 47, 48, 49, 50, 51, 52, 53, 54}, {55, 56, 57, 58, 59, 60, 61, 62, 63}, {64, 65, 66, 67, 68, 69, 70, 71, 72}, {73, 74, 75, 76, 77, 78, 79, 80, 81}, {82, 83, 84, 85, 86, 87, 88, 89, 90}, {91, 92, 93, 94, 95, 96, 97, 98, 99}, {100, 101, 102, 103, 104, 105, 106, 107, 108}, {109, 110, 111, 112, 113, 114, 115, 116, 117}, {118, 119, 120, 121, 122, 123, 124, 125, 126}, {127, 128, 129, 130, 131, 132, 133, 134, 135}, {136, 137, 138, 139, 140, 141, 142, 143, 144}, {145, 146, 147, 148, 149, 150, 151, 152, 153}, {154, 155, 156, 157, 158, 159, 160, 161, 162}, {163, 164, 165, 166, 167, 168, 169, 170, 171}, {172, 173, 174, 175, 176, 177, 178, 179, 180}, {181, 182, 183, 184, 185, 186, 187, 188, 189}, {190, 191, 192, 193, 194, 195, 196, 197, 198}, {199, 200, 201, 202, 203, 204, 205, 206, 207}, {208, 209, 210, 211, 212, 213, 214, 215, 216}, {217, 218, 219, 220, 221, 222, 223, 224, 225}, {226, 227, 228, 229, 230, 231, 232, 233, 234}, {235, 236, 237, 238, 239, 240, 241, 242, 243}, {244, 245, 246, 247, 248, 249, 250, 251, 252}, {253, 254, 255, 256, 257, 258, 259, 260, 261}, {262, 263, 264, 265, 266, 267, 268, 269, 270}, {271, 272, 273, 274, 275, 276, 277, 278, 279}, {280, 281, 282, 283, 284, 285, 286, 287, 288}, {289, 290, 291, 292, 293, 294, 295, 296, 297}, {298, 299, 300, 301, 302, 303, 304, 305, 306}, {307, 308, 309, 310, 311, 312, 313, 314, 315}, {316, 317, 318, 319, 320, 321, 322, 323, 324}, {325, 326, 327, 328, 329, 330, 331, 332, 333}, {334, 335, 336, 337, 338, 339, 340, 341, 342}, {343, 344, 345, 346, 347, 348, 349, 350, 351}, {352, 353, 354, 355, 356, 357, 358, 359, 360}, {361, 362, 363, 364, 365, 366, 367, 368, 369}, {370, 371, 372, 373, 374, 375, 376, 377, 378}, {379, 380, 381, 382, 383, 384, 385, 386, 387}, {388, 389, 390, 391, 392, 393, 394, 395, 396}, {397, 398, 399, 400, 401, 402, 403, 404, 405}, {406, 407, 408, 409, 410, 411, 412, 413, 414}, {415, 416, 417, 418, 419, 420, 421, 422, 423}, {424, 425, 426, 427, 428, 429, 430, 431, 432}, {433, 434, 435, 436, 437, 438, 439, 440, 441}, {442, 443, 444, 445, 446, 447, 448, 449, 450}];
succ =  [{18, 15, 13, 12, 11, 10, 9}, {18, 13, 11, 10, 9}, {15, 13, 10, 6}, {19, 18, 15, 13, 11}, {15, 10, 6}, {30, 27, 22, 21, 19, 18, 16, 14}, {30, 22, 19, 18, 16, 15, 14}, {18, 15, 11}, {30, 27, 22, 20, 19, 17, 16}, {30, 22, 20, 19, 17, 16}, {30, 27, 25, 22, 14}, {27, 23, 22, 21, 20, 19, 17}, {22, 21, 17, 16}, {23, 20, 17}, {21, 17}, {29, 26, 25, 23}, {34, 29, 26, 24}, {24, 20}, {34, 29, 28, 24}, {34, 31, 29, 28}, {34, 31, 29, 28}, {31, 29, 28}, {31, 28}, {38, 32, 31}, {34, 32, 31}, {39, 28}, {39, 28}, {43, 38, 35, 32}, {43, 38, 35, 32}, {39, 38, 32}, {43, 41, 39, 35}, {36, 33}, {50, 42, 41, 40, 37}, {40, 37, 36}, {50, 42, 40, 37}, {50, 49, 46, 45, 42}, {49, 46, 45, 44}, {48, 46, 45, 44}, {48, 45, 44}, {48, 44}, {48, 47}, {44}, {44}, {47}, {47}, {47}, {}, {}, {}, {}];
n_opt = 450;
dur = [2, 3, 8, 10, 13, 14, 24, 25, 28, 12, 13, 14, 15, 16, 19, 22, 23, 24, 3, 7, 11, 13, 17, 25, 26, 27, 28, 7, 12, 16, 19, 21, 22, 23, 25, 26, 3, 4, 5, 7, 8, 9, 10, 16, 24, 1, 2, 3, 4, 5, 8, 15, 27, 29, 3, 4, 7, 9, 11, 19, 20, 23, 25, 10, 11, 12, 16, 21, 22, 23, 29, 30, 1, 5, 6, 10, 18, 19, 20, 24, 29, 6, 7, 10, 11, 12, 13, 17, 22, 24, 7, 11, 12, 13, 14, 18, 19, 25, 30, 3, 5, 9, 10, 15, 26, 27, 29, 30, 2, 4, 11, 16, 17, 18, 23, 26, 28, 3, 10, 11, 12, 13, 14, 19, 26, 29, 8, 12, 15, 17, 18, 19, 20, 21, 23, 2, 3, 4, 17, 18, 22, 24, 27, 28, 1, 8, 9, 11, 15, 17, 21, 23, 27, 3, 4, 5, 9, 10, 15, 19, 20, 26, 6, 13, 14, 15, 16, 19, 23, 26, 27, 2, 10, 11, 12, 15, 16, 17, 18, 27, 5, 10, 13, 18, 23, 24, 26, 28, 29, 4, 8, 9, 13, 22, 24, 25, 27, 28, 1, 2, 4, 13, 14, 16, 27, 29, 30, 1, 2, 4, 9, 15, 22, 23, 29, 30, 4, 5, 8, 9, 11, 19, 25, 28, 29, 1, 6, 7, 10, 11, 13, 14, 28, 30, 1, 7, 8, 9, 14, 15, 17, 25, 29, 1, 2, 3, 4, 5, 7, 20, 21, 23, 1, 3, 8, 9, 16, 18, 25, 29, 30, 5, 6, 7, 13, 16, 17, 23, 24, 27, 6, 9, 16, 17, 18, 23, 24, 25, 30, 2, 4, 12, 13, 17, 18, 22, 25, 27, 4, 8, 9, 10, 12, 22, 23, 24, 28, 1, 2, 3, 4, 5, 16, 17, 22, 26, 1, 2, 4, 16, 18, 19, 20, 21, 24, 2, 4, 6, 9, 13, 17, 18, 22, 30, 4, 7, 13, 14, 15, 18, 22, 26, 27, 2, 6, 7, 14, 15, 17, 18, 19, 25, 3, 6, 10, 18, 23, 24, 25, 27, 30, 4, 5, 12, 15, 16, 20, 23, 29, 30, 1, 2, 3, 5, 7, 10, 16, 23, 26, 1, 3, 11, 14, 16, 19, 22, 23, 24, 14, 15, 17, 21, 22, 23, 26, 27, 28, 12, 15, 17, 18, 21, 22, 24, 27, 28, 6, 11, 12, 14, 15, 20, 24, 28, 29, 5, 6, 11, 14, 15, 21, 22, 27, 29, 1, 2, 3, 12, 13, 14, 16, 17, 29, 5, 12, 15, 17, 21, 22, 25, 26, 28, 5, 6, 7, 9, 11, 13, 16, 25, 27, 5, 6, 19, 20, 21, 24, 26, 27, 30];
rreq = [|4, 4, 4, 4, 4, 3, 3, 3, 3, 2, 2, 2, 2, 2, 2, 2, 2, 2, 5, 5, 5, 5, 5, 5, 5, 5, 5, 4, 4, 4, 3, 3, 3, 2, 2, 2, 2, 2, 2, 2, 2, 2, 2, 2, 2, 5, 4, 4, 3, 3, 3, 3, 2, 2, 4, 4, 4, 4, 3, 3, 3, 2, 2, 2, 1, 1, 1, 1, 1, 1, 1, 1, 5, 4, 4, 4, 4, 4, 4, 4, 4, 4, 3, 3, 3, 3, 3, 3, 3, 3, 4, 4, 4, 4, 4, 4, 4, 4, 4, 4, 4, 3, 3, 2, 2, 2, 1, 1, 3, 2, 2, 2, 1, 1, 1, 1, 1, 4, 4, 4, 4, 3, 3, 3, 3, 3, 2, 1, 1, 1, 1, 1, 1, 1, 1, 4, 3, 3, 3, 3, 3, 3, 3, 3, 1, 1, 1, 1, 1, 1, 1, 1, 1, 3, 2, 2, 2, 2, 2, 2, 2, 2, 2, 2, 2, 2, 2, 2, 2, 2, 2, 3, 2, 2, 2, 1, 1, 1, 1, 1, 4, 3, 3, 3, 3, 2, 2, 2, 2, 2, 1, 1, 1, 1, 1, 1, 1, 1, 3, 3, 3, 3, 2, 2, 1, 1, 1, 5, 4, 4, 4, 4, 3, 3, 3, 3, 4, 4, 3, 3, 3, 2, 1, 1, 1, 5, 4, 4, 3, 3, 2, 1, 1, 1, 5, 4, 4, 4, 3, 3, 3, 3, 3, 4, 4, 3, 3, 2, 2, 1, 1, 1, 1, 1, 1, 1, 1, 1, 1, 1, 1, 1, 1, 1, 1, 1, 1, 1, 1, 1, 4, 4, 4, 4, 4, 4, 4, 4, 4, 5, 4, 4, 4, 4, 3, 3, 3, 3, 2, 2, 2, 2, 1, 1, 1, 1, 1, 3, 3, 3, 3, 3, 3, 3, 3, 3, 5, 4, 4, 4, 4, 3, 3, 3, 3, 2, 2, 2, 2, 2, 2, 2, 2, 2, 5, 4, 4, 4, 4, 4, 4, 4, 4, 4, 4, 4, 4, 4, 4, 4, 4, 4, 2, 1, 1, 1, 1, 1, 1, 1, 1, 3, 2, 2, 2, 2, 1, 1, 1, 1, 5, 4, 4, 4, 3, 3, 3, 3, 3, 5, 5, 5, 5, 5, 5, 5, 5, 5, 2, 2, 2, 2, 1, 1, 1, 1, 1, 5, 4, 4, 4, 3, 3, 3, 2, 2, 5, 4, 4, 4, 3, 3, 2, 2, 2, 3, 3, 3, 2, 2, 2, 1, 1, 1, 5, 5, 5, 5, 5, 5, 5, 5, 5, 2, 1, 1, 1, 1, 1, 1, 1, 1, 2, 2, 2, 2, 2, 2, 2, 2, 2, 3, 3, 3, 3, 3, 3, 3, 3, 3
 |4, 4, 4, 4, 4, 4, 4, 4, 4, 2, 2, 2, 2, 2, 2, 2, 2, 2, 4, 4, 4, 4, 3, 3, 3, 3, 3, 5, 5, 5, 5, 5, 5, 5, 5, 5, 5, 4, 4, 4, 3, 3, 3, 3, 3, 3, 2, 2, 2, 2, 2, 2, 2, 2, 2, 2, 2, 2, 1, 1, 1, 1, 1, 4, 4, 4, 3, 3, 3, 3, 2, 2, 5, 4, 3, 3, 3, 2, 2, 1, 1, 2, 2, 2, 2, 2, 1, 1, 1, 1, 3, 2, 2, 2, 2, 2, 2, 2, 2, 1, 1, 1, 1, 1, 1, 1, 1, 1, 1, 1, 1, 1, 1, 1, 1, 1, 1, 1, 1, 1, 1, 1, 1, 1, 1, 1, 4, 4, 4, 4, 4, 4, 4, 4, 4, 3, 2, 2, 2, 2, 1, 1, 1, 1, 5, 5, 5, 5, 5, 5, 5, 5, 5, 1, 1, 1, 1, 1, 1, 1, 1, 1, 2, 2, 2, 2, 2, 1, 1, 1, 1, 2, 1, 1, 1, 1, 1, 1, 1, 1, 2, 2, 2, 2, 2, 2, 2, 2, 2, 5, 4, 4, 4, 3, 3, 2, 2, 2, 4, 4, 4, 4, 4, 4, 4, 4, 4, 4, 4, 4, 4, 4, 4, 4, 4, 4, 5, 4, 4, 4, 4, 4, 4, 4, 4, 5, 4, 4, 4, 4, 4, 4, 4, 4, 3, 3, 3, 3, 3, 2, 2, 2, 2, 4, 4, 4, 4, 4, 4, 4, 4, 4, 1, 1, 1, 1, 1, 1, 1, 1, 1, 3, 3, 3, 3, 3, 2, 2, 2, 2, 4, 4, 4, 4, 4, 3, 3, 3, 3, 4, 4, 4, 4, 4, 3, 3, 3, 3, 1, 1, 1, 1, 1, 1, 1, 1, 1, 4, 4, 4, 4, 4, 4, 4, 4, 4, 1, 1, 1, 1, 1, 1, 1, 1, 1, 3, 3, 3, 3, 3, 3, 3, 3, 3, 4, 4, 4, 4, 4, 3, 3, 3, 3, 2, 2, 2, 2, 2, 2, 2, 2, 2, 4, 4, 4, 4, 4, 4, 4, 4, 4, 3, 3, 3, 3, 3, 3, 3, 3, 3, 3, 2, 2, 2, 2, 1, 1, 1, 1, 5, 4, 4, 4, 4, 3, 3, 3, 3, 5, 4, 4, 3, 2, 2, 1, 1, 1, 5, 4, 4, 4, 4, 4, 4, 4, 4, 5, 5, 5, 5, 5, 5, 5, 5, 5, 2, 2, 2, 2, 2, 2, 2, 2, 2, 4, 4, 4, 4, 4, 4, 4, 4, 4, 4, 4, 4, 4, 4, 4, 4, 4, 4, 3, 2, 2, 2, 2, 2, 2, 2, 2, 3, 2, 2, 2, 2, 2, 2, 2, 2
 |23, 22, 22, 20, 20, 20, 18, 18, 17, 18, 18, 18, 18, 18, 18, 18, 18, 18, 24, 20, 20, 16, 14, 12, 10, 6, 5, 27, 26, 25, 21, 21, 19, 16, 14, 12, 26, 26, 25, 25, 24, 23, 23, 23, 22, 24, 23, 20, 19, 18, 14, 12, 12, 9, 6, 6, 6, 6, 6, 6, 6, 6, 6, 7, 7, 7, 7, 7, 7, 7, 7, 7, 16, 14, 14, 13, 12, 10, 10, 8, 8, 10, 9, 8, 7, 7, 6, 5, 4, 2, 24, 21, 19, 18, 17, 16, 14, 11, 10, 15, 14, 13, 12, 9, 8, 8, 6, 5, 22, 21, 19, 18, 18, 17, 16, 15, 15, 25, 25, 25, 25, 25, 25, 25, 25, 25, 14, 13, 13, 13, 12, 12, 11, 11, 11, 20, 19, 17, 16, 16, 15, 14, 14, 13, 23, 19, 18, 17, 16, 13, 13, 10, 9, 23, 23, 23, 23, 22, 22, 22, 22, 22, 14, 13, 12, 10, 9, 8, 8, 5, 4, 25, 25, 23, 21, 19, 17, 16, 14, 13, 28, 28, 27, 26, 25, 25, 25, 24, 23, 17, 16, 15, 15, 14, 14, 13, 13, 12, 21, 21, 17, 15, 14, 13, 10, 9, 7, 24, 21, 18, 17, 16, 12, 11, 8, 7, 18, 17, 16, 16, 16, 15, 14, 14, 14, 18, 16, 16, 15, 15, 14, 13, 13, 12, 16, 13, 13, 11, 10, 7, 6, 4, 4, 30, 28, 26, 23, 22, 19, 17, 16, 14, 24, 20, 17, 17, 14, 11, 9, 4, 4, 19, 18, 18, 18, 18, 17, 17, 17, 17, 7, 7, 7, 7, 6, 6, 6, 6, 6, 26, 26, 24, 24, 22, 21, 20, 19, 19, 28, 27, 27, 26, 26, 25, 24, 24, 24, 10, 9, 9, 9, 8, 7, 7, 6, 5, 20, 17, 14, 13, 11, 10, 7, 6, 4, 19, 18, 17, 17, 16, 16, 15, 15, 15, 29, 28, 27, 26, 26, 26, 25, 25, 24, 25, 24, 24, 23, 20, 20, 19, 18, 17, 8, 8, 7, 7, 7, 6, 6, 5, 5, 27, 26, 26, 26, 26, 25, 25, 25, 25, 26, 20, 18, 17, 13, 12, 9, 6, 3, 21, 21, 21, 21, 21, 21, 21, 21, 21, 22, 20, 17, 15, 15, 12, 10, 10, 8, 13, 13, 13, 13, 13, 13, 13, 13, 13, 29, 24, 23, 20, 17, 14, 10, 9, 3, 26, 25, 24, 24, 23, 22, 20, 19, 19, 24, 23, 21, 20, 18, 14, 14, 12, 10, 21, 21, 21, 21, 20, 20, 20, 20, 20, 12, 12, 12, 12, 11, 11, 10, 10, 10, 10, 9, 8, 6, 5, 4, 4, 3, 2
 |19, 19, 17, 13, 12, 12, 10, 6, 6, 28, 24, 23, 18, 16, 14, 13, 9, 7, 24, 24, 23, 22, 20, 19, 18, 17, 17, 25, 25, 24, 22, 22, 21, 20, 18, 17, 22, 22, 20, 18, 16, 15, 12, 10, 10, 18, 15, 12, 10, 10, 9, 5, 3, 2, 14, 14, 14, 14, 13, 13, 13, 12, 12, 26, 23, 20, 18, 14, 12, 9, 8, 5, 27, 26, 22, 20, 16, 14, 14, 10, 8, 28, 25, 21, 18, 17, 14, 12, 7, 4, 15, 15, 13, 12, 12, 10, 10, 9, 8, 4, 4, 4, 4, 4, 4, 4, 4, 4, 6, 6, 6, 6, 6, 5, 5, 5, 5, 14, 12, 11, 10, 9, 8, 7, 6, 4, 23, 20, 19, 17, 14, 12, 12, 9, 7, 6, 5, 5, 5, 4, 3, 3, 2, 2, 8, 8, 8, 7, 7, 7, 7, 6, 6, 23, 22, 21, 20, 17, 16, 13, 13, 10, 2, 2, 2, 2, 1, 1, 1, 1, 1, 8, 8, 7, 7, 6, 5, 5, 5, 4, 2, 2, 2, 2, 2, 2, 2, 2, 2, 27, 26, 25, 25, 25, 24, 24, 23, 23, 5, 4, 4, 4, 4, 4, 4, 4, 4, 1, 1, 1, 1, 1, 1, 1, 1, 1, 22, 18, 18, 17, 14, 12, 12, 8, 8, 26, 24, 22, 20, 18, 14, 11, 10, 8, 28, 26, 22, 20, 18, 15, 12, 10, 9, 14, 12, 11, 10, 10, 8, 7, 6, 6, 28, 26, 26, 25, 23, 23, 22, 20, 19, 25, 21, 21, 17, 13, 11, 8, 8, 5, 25, 24, 21, 19, 19, 17, 16, 13, 12, 28, 27, 25, 24, 21, 19, 17, 16, 14, 13, 12, 11, 10, 10, 8, 7, 6, 6, 25, 23, 23, 21, 21, 20, 20, 18, 18, 23, 19, 16, 14, 11, 8, 5, 5, 2, 24, 24, 24, 24, 24, 23, 23, 23, 23, 20, 20, 20, 20, 19, 19, 19, 19, 19, 14, 14, 12, 12, 10, 10, 9, 8, 7, 14, 13, 12, 12, 11, 10, 10, 9, 8, 21, 21, 21, 21, 21, 21, 21, 21, 21, 12, 11, 10, 8, 7, 6, 5, 4, 3, 25, 24, 23, 20, 20, 18, 16, 16, 14, 26, 25, 24, 21, 18, 16, 16, 13, 12, 28, 26, 23, 20, 20, 17, 16, 13, 12, 27, 26, 25, 24, 24, 23, 23, 22, 21, 16, 16, 14, 13, 13, 11, 11, 10, 9, 11, 10, 9, 8, 6, 6, 4, 3, 2, 28, 28, 27, 27, 26, 26, 25, 25, 25, 21, 19, 18, 18, 17, 16, 14, 13, 12, 27, 26, 25, 24, 23, 22, 20, 20, 19
 |14, 13, 13, 13, 12, 12, 12, 11, 11, 29, 28, 27, 26, 26, 25, 25, 25, 24, 24, 23, 21, 20, 19, 17, 17, 15, 15, 19, 19, 19, 18, 18, 18, 17, 17, 17, 25, 23, 21, 17, 16, 12, 11, 7, 5, 21, 20, 19, 18, 17, 14, 14, 11, 10, 30, 28, 25, 22, 21, 21, 19, 15, 14, 25, 24, 24, 23, 22, 22, 21, 20, 19, 27, 27, 26, 25, 24, 22, 21, 20, 18, 28, 28, 28, 28, 28, 27, 27, 27, 27, 27, 24, 21, 19, 18, 15, 11, 11, 7, 29, 25, 25, 21, 18, 15, 15, 11, 8, 19, 17, 17, 17, 16, 16, 15, 14, 14, 24, 23, 22, 20, 18, 18, 17, 16, 14, 28, 27, 27, 26, 25, 24, 22, 21, 21, 29, 28, 28, 27, 26, 26, 24, 23, 23, 25, 21, 20, 17, 13, 11, 9, 6, 1, 8, 8, 8, 8, 8, 8, 8, 8, 8, 30, 25, 25, 23, 21, 18, 15, 14, 10, 29, 25, 21, 19, 16, 14, 13, 10, 7, 23, 20, 19, 18, 16, 15, 13, 12, 10, 22, 19, 17, 13, 13, 8, 6, 5, 4, 10, 9, 9, 7, 7, 5, 4, 4, 3, 15, 14, 13, 10, 8, 8, 6, 4, 3, 11, 9, 8, 7, 7, 4, 4, 2, 2, 10, 9, 9, 8, 7, 7, 6, 6, 5, 24, 20, 18, 16, 14, 11, 10, 6, 5, 24, 22, 22, 20, 19, 19, 18, 16, 15, 24, 22, 21, 21, 19, 17, 16, 16, 15, 28, 28, 27, 27, 26, 26, 26, 25, 25, 26, 22, 20, 20, 15, 15, 11, 8, 7, 26, 25, 20, 18, 14, 11, 9, 4, 1, 25, 23, 22, 22, 19, 19, 17, 14, 13, 20, 20, 20, 19, 19, 18, 18, 17, 17, 26, 26, 25, 24, 22, 22, 21, 20, 19, 26, 26, 24, 23, 21, 21, 19, 17, 17, 9, 8, 8, 8, 8, 8, 8, 8, 8, 18, 17, 17, 17, 17, 17, 17, 17, 17, 7, 7, 6, 6, 5, 4, 4, 4, 3, 23, 20, 19, 16, 14, 13, 13, 11, 8, 19, 18, 17, 17, 16, 15, 14, 14, 13, 14, 13, 13, 13, 12, 12, 12, 12, 12, 24, 23, 22, 22, 20, 20, 20, 19, 18, 25, 25, 25, 25, 25, 25, 25, 25, 25, 19, 16, 15, 13, 13, 11, 11, 8, 8, 24, 23, 20, 19, 18, 17, 15, 13, 11, 9, 9, 9, 9, 8, 8, 8, 8, 8, 20, 18, 16, 13, 10, 8, 8, 5, 3, 21, 21, 21, 21, 21, 20, 20, 20, 20, 25, 25, 22, 21, 19, 17, 17, 15, 14
 |26, 26, 25, 22, 20, 20, 17, 16, 15, 22, 21, 19, 18, 18, 17, 16, 14, 14, 18, 18, 16, 14, 13, 11, 9, 7, 6, 30, 30, 30, 30, 29, 30, 30, 30, 30, 28, 28, 26, 24, 21, 20, 17, 17, 15, 25, 24, 21, 21, 19, 17, 14, 13, 11, 18, 16, 16, 13, 11, 8, 7, 6, 4, 8, 7, 7, 6, 6, 6, 6, 5, 5, 13, 12, 12, 11, 11, 11, 10, 10, 10, 9, 8, 8, 7, 6, 6, 5, 5, 5, 20, 19, 18, 17, 16, 16, 16, 15, 14, 14, 14, 14, 14, 13, 13, 12, 12, 12, 30, 29, 28, 28, 27, 27, 26, 26, 25, 18, 17, 15, 15, 13, 12, 12, 11, 10, 27, 22, 21, 19, 17, 15, 13, 11, 7, 13, 13, 12, 12, 12, 11, 11, 10, 10, 27, 26, 24, 24, 23, 21, 21, 20, 18, 24, 21, 20, 19, 16, 14, 14, 11, 9, 26, 23, 19, 18, 12, 11, 10, 4, 2, 15, 14, 14, 13, 13, 13, 12, 12, 12, 28, 27, 25, 25, 24, 24, 23, 21, 21, 26, 24, 21, 18, 18, 15, 13, 10, 9, 26, 25, 23, 21, 21, 20, 17, 16, 16, 22, 20, 20, 18, 18, 16, 14, 14, 13, 13, 11, 11, 10, 9, 8, 8, 7, 6, 28, 24, 23, 19, 19, 17, 15, 12, 9, 4, 3, 3, 3, 3, 2, 2, 2, 2, 9, 9, 8, 8, 7, 6, 6, 5, 4, 15, 15, 15, 15, 15, 15, 15, 15, 15, 23, 21, 20, 19, 15, 13, 11, 10, 8, 22, 21, 21, 19, 17, 16, 14, 12, 12, 17, 15, 15, 14, 14, 13, 13, 12, 12, 9, 7, 7, 7, 6, 5, 5, 5, 4, 23, 23, 21, 19, 17, 17, 15, 14, 13, 19, 16, 15, 14, 11, 8, 6, 4, 3, 14, 12, 12, 12, 11, 10, 10, 10, 9, 12, 11, 11, 11, 10, 10, 10, 9, 10, 29, 29, 29, 28, 28, 27, 27, 27, 27, 18, 17, 15, 14, 14, 13, 11, 11, 10, 26, 22, 19, 16, 14, 9, 8, 6, 1, 28, 26, 25, 21, 18, 18, 16, 12, 9, 21, 21, 20, 19, 17, 16, 15, 14, 13, 16, 15, 15, 14, 14, 13, 12, 12, 11, 28, 28, 27, 26, 26, 25, 25, 25, 24, 19, 19, 15, 15, 11, 9, 8, 4, 3, 11, 10, 9, 8, 8, 8, 7, 6, 6, 17, 14, 14, 13, 10, 10, 7, 7, 4, 13, 11, 11, 9, 9, 9, 7, 6, 6, 26, 24, 24, 23, 23, 22, 22, 21, 21, 23, 20, 19, 17, 17, 14, 14, 11, 10|];